nK = 2508;
nT = 8;
nI = 21;
L = 29;
TT = 666;
np = 1;
nc = 3;
b = [61, 41, 29, 59, 52, 54, 46, 62, 47, 29, 67, 67, 42, 35, 60, 42, 68, 55, 40, 43, 65];
d = [128, 69, 71, 150, 114, 131, 83, 124, 82, 105, 135, 125, 120, 61, 95, 94, 124, 95, 76, 98, 138];
m = [1.4, 1, 1.8, 1.1, 2.4, 1.1, 2, 1.9, 2.3, 1.6, 1.2, 1.6, 1.9, 1, 1.7, 1.6, 1.2, 2.1, 1.3, 1, 1.3];
pt = [0.28, 0.29, 0.34, 0.27, 0.35, 0.26, 0.29, 0.28];
st = [12.32, 11.89, 16.32, 11.61, 19.95, 14.04, 15.37, 16.8];
arc = {<1, 0, 1, 1, 0, 0, 0, [1, 1, 1, 1, 1, 1, 1, 1]>, <2, 1, 2, 1, 0, 0, 0, [1, 1, 1, 1, 1, 1, 1, 1]>, <3, 2, 3, 1, 0, 0, 0, [1, 1, 1, 1, 1, 1, 1, 1]>, <4, 3, 4, 1, 0, 0, 0, [1, 1, 1, 1, 1, 1, 1, 1]>, <5, 4, 5, 1, 0, 0, 0, [1, 1, 1, 1, 1, 1, 1, 1]>, <6, 5, 6, 1, 0, 0, 0, [1, 1, 1, 1, 1, 1, 1, 1]>, <7, 6, 7, 1, 0, 0, 0, [1, 1, 1, 1, 1, 1, 1, 1]>, <8, 7, 8, 1, 0, 0, 0, [1, 1, 1, 1, 1, 1, 1, 1]>, <9, 8, 9, 1, 0, 0, 0, [1, 1, 1, 1, 1, 1, 1, 1]>, <10, 9, 10, 1, 0, 0, 0, [1, 1, 1, 1, 1, 1, 1, 1]>, <11, 10, 11, 1, 0, 0, 0, [1, 1, 1, 1, 1, 1, 1, 1]>, <12, 11, 12, 1, 0, 0, 0, [1, 1, 1, 1, 1, 1, 1, 1]>, <13, 12, 13, 1, 0, 0, 0, [1, 1, 1, 1, 1, 1, 1, 1]>, <14, 13, 14, 1, 0, 0, 0, [1, 1, 1, 1, 1, 1, 1, 1]>, <15, 14, 15, 1, 0, 0, 0, [1, 1, 1, 1, 1, 1, 1, 1]>, <16, 15, 16, 1, 0, 0, 0, [1, 1, 1, 1, 1, 1, 1, 1]>, <17, 16, 17, 1, 0, 0, 0, [1, 1, 1, 1, 1, 1, 1, 1]>, <18, 17, 18, 1, 0, 0, 0, [1, 1, 1, 1, 1, 1, 1, 1]>, <19, 18, 19, 1, 0, 0, 0, [1, 1, 1, 1, 1, 1, 1, 1]>, <20, 19, 20, 1, 0, 0, 0, [1, 1, 1, 1, 1, 1, 1, 1]>, <21, 20, 21, 1, 0, 0, 0, [1, 1, 1, 1, 1, 1, 1, 1]>, <22, 21, 22, 1, 0, 0, 0, [1, 1, 1, 1, 1, 1, 1, 1]>, <23, 22, 23, 1, 0, 0, 0, [1, 1, 1, 1, 1, 1, 1, 1]>, <24, 23, 24, 1, 0, 0, 0, [1, 1, 1, 1, 1, 1, 1, 1]>, <25, 24, 25, 1, 0, 0, 0, [1, 1, 1, 1, 1, 1, 1, 1]>, <26, 25, 26, 1, 0, 0, 0, [1, 1, 1, 1, 1, 1, 1, 1]>, <27, 26, 27, 1, 0, 0, 0, [1, 1, 1, 1, 1, 1, 1, 1]>, <28, 27, 28, 1, 0, 0, 0, [1, 1, 1, 1, 1, 1, 1, 1]>, <29, 28, 29, 1, 0, 0, 0, [1, 1, 1, 1, 1, 1, 1, 1]>, <30, 0, 16, 16, 1, 0, 0, [0, 0, 0, 0, 0, 1, 1, 0]>, <31, 1, 17, 16, 1, 0, 0, [0, 0, 0, 0, 0, 1, 1, 0]>, <32, 2, 18, 16, 1, 0, 0, [0, 0, 0, 0, 0, 1, 1, 0]>, <33, 3, 19, 16, 1, 0, 0, [0, 0, 0, 0, 0, 1, 1, 0]>, <34, 4, 20, 16, 1, 0, 0, [0, 0, 0, 0, 0, 1, 1, 0]>, <35, 5, 21, 16, 1, 0, 0, [0, 0, 0, 0, 0, 1, 1, 0]>, <36, 6, 22, 16, 1, 0, 0, [0, 0, 0, 0, 0, 1, 1, 0]>, <37, 7, 23, 16, 1, 0, 0, [0, 0, 0, 0, 0, 1, 1, 0]>, <38, 8, 24, 16, 1, 0, 0, [0, 0, 0, 0, 0, 1, 1, 0]>, <39, 9, 25, 16, 1, 0, 0, [0, 0, 0, 0, 0, 1, 1, 0]>, <40, 10, 26, 16, 1, 0, 0, [0, 0, 0, 0, 0, 1, 1, 0]>, <41, 11, 27, 16, 1, 0, 0, [0, 0, 0, 0, 0, 1, 1, 0]>, <42, 12, 28, 16, 1, 0, 0, [0, 0, 0, 0, 0, 1, 1, 0]>, <43, 13, 29, 16, 1, 0, 0, [0, 0, 0, 0, 0, 1, 1, 0]>, <44, 0, 16, 16, 2, 0, 1, [1, 0, 0, 0, 0, 0, 0, 1]>, <45, 1, 17, 16, 2, 0, 1, [1, 0, 0, 0, 0, 0, 0, 1]>, <46, 2, 18, 16, 2, 0, 1, [1, 0, 0, 0, 0, 0, 0, 1]>, <47, 3, 19, 16, 2, 0, 1, [1, 0, 0, 0, 0, 0, 0, 1]>, <48, 4, 20, 16, 2, 0, 1, [1, 0, 0, 0, 0, 0, 0, 1]>, <49, 5, 21, 16, 2, 0, 1, [1, 0, 0, 0, 0, 0, 0, 1]>, <50, 6, 22, 16, 2, 0, 1, [1, 0, 0, 0, 0, 0, 0, 1]>, <51, 7, 23, 16, 2, 0, 1, [1, 0, 0, 0, 0, 0, 0, 1]>, <52, 8, 24, 16, 2, 0, 1, [1, 0, 0, 0, 0, 0, 0, 1]>, <53, 9, 25, 16, 2, 0, 1, [1, 0, 0, 0, 0, 0, 0, 1]>, <54, 10, 26, 16, 2, 0, 1, [1, 0, 0, 0, 0, 0, 0, 1]>, <55, 11, 27, 16, 2, 0, 1, [1, 0, 0, 0, 0, 0, 0, 1]>, <56, 12, 28, 16, 2, 0, 1, [1, 0, 0, 0, 0, 0, 0, 1]>, <57, 13, 29, 16, 2, 0, 1, [1, 0, 0, 0, 0, 0, 0, 1]>, <58, 0, 14, 14, 3, 1, 0, [0, 0, 0, 1, 1, 0, 0, 0]>, <59, 1, 15, 14, 3, 1, 0, [0, 0, 0, 1, 1, 0, 0, 0]>, <60, 2, 16, 14, 3, 1, 0, [0, 0, 0, 1, 1, 0, 0, 0]>, <61, 3, 17, 14, 3, 1, 0, [0, 0, 0, 1, 1, 0, 0, 0]>, <62, 4, 18, 14, 3, 1, 0, [0, 0, 0, 1, 1, 0, 0, 0]>, <63, 5, 19, 14, 3, 1, 0, [0, 0, 0, 1, 1, 0, 0, 0]>, <64, 6, 20, 14, 3, 1, 0, [0, 0, 0, 1, 1, 0, 0, 0]>, <65, 7, 21, 14, 3, 1, 0, [0, 0, 0, 1, 1, 0, 0, 0]>, <66, 8, 22, 14, 3, 1, 0, [0, 0, 0, 1, 1, 0, 0, 0]>, <67, 9, 23, 14, 3, 1, 0, [0, 0, 0, 1, 1, 0, 0, 0]>, <68, 10, 24, 14, 3, 1, 0, [0, 0, 0, 1, 1, 0, 0, 0]>, <69, 11, 25, 14, 3, 1, 0, [0, 0, 0, 1, 1, 0, 0, 0]>, <70, 12, 26, 14, 3, 1, 0, [0, 0, 0, 1, 1, 0, 0, 0]>, <71, 13, 27, 14, 3, 1, 0, [0, 0, 0, 1, 1, 0, 0, 0]>, <72, 14, 28, 14, 3, 1, 0, [0, 0, 0, 1, 1, 0, 0, 0]>, <73, 15, 29, 14, 3, 1, 0, [0, 0, 0, 1, 1, 0, 0, 0]>, <74, 0, 16, 16, 4, 1, 0, [1, 0, 0, 0, 0, 0, 0, 1]>, <75, 1, 17, 16, 4, 1, 0, [1, 0, 0, 0, 0, 0, 0, 1]>, <76, 2, 18, 16, 4, 1, 0, [1, 0, 0, 0, 0, 0, 0, 1]>, <77, 3, 19, 16, 4, 1, 0, [1, 0, 0, 0, 0, 0, 0, 1]>, <78, 4, 20, 16, 4, 1, 0, [1, 0, 0, 0, 0, 0, 0, 1]>, <79, 5, 21, 16, 4, 1, 0, [1, 0, 0, 0, 0, 0, 0, 1]>, <80, 6, 22, 16, 4, 1, 0, [1, 0, 0, 0, 0, 0, 0, 1]>, <81, 7, 23, 16, 4, 1, 0, [1, 0, 0, 0, 0, 0, 0, 1]>, <82, 8, 24, 16, 4, 1, 0, [1, 0, 0, 0, 0, 0, 0, 1]>, <83, 9, 25, 16, 4, 1, 0, [1, 0, 0, 0, 0, 0, 0, 1]>, <84, 10, 26, 16, 4, 1, 0, [1, 0, 0, 0, 0, 0, 0, 1]>, <85, 11, 27, 16, 4, 1, 0, [1, 0, 0, 0, 0, 0, 0, 1]>, <86, 12, 28, 16, 4, 1, 0, [1, 0, 0, 0, 0, 0, 0, 1]>, <87, 13, 29, 16, 4, 1, 0, [1, 0, 0, 0, 0, 0, 0, 1]>, <88, 0, 17, 17, 5, 0, 0, [0, 0, 1, 1, 0, 0, 0, 0]>, <89, 1, 18, 17, 5, 0, 0, [0, 0, 1, 1, 0, 0, 0, 0]>, <90, 2, 19, 17, 5, 0, 0, [0, 0, 1, 1, 0, 0, 0, 0]>, <91, 3, 20, 17, 5, 0, 0, [0, 0, 1, 1, 0, 0, 0, 0]>, <92, 4, 21, 17, 5, 0, 0, [0, 0, 1, 1, 0, 0, 0, 0]>, <93, 5, 22, 17, 5, 0, 0, [0, 0, 1, 1, 0, 0, 0, 0]>, <94, 6, 23, 17, 5, 0, 0, [0, 0, 1, 1, 0, 0, 0, 0]>, <95, 7, 24, 17, 5, 0, 0, [0, 0, 1, 1, 0, 0, 0, 0]>, <96, 8, 25, 17, 5, 0, 0, [0, 0, 1, 1, 0, 0, 0, 0]>, <97, 9, 26, 17, 5, 0, 0, [0, 0, 1, 1, 0, 0, 0, 0]>, <98, 10, 27, 17, 5, 0, 0, [0, 0, 1, 1, 0, 0, 0, 0]>, <99, 11, 28, 17, 5, 0, 0, [0, 0, 1, 1, 0, 0, 0, 0]>, <100, 12, 29, 17, 5, 0, 0, [0, 0, 1, 1, 0, 0, 0, 0]>, <101, 0, 17, 17, 6, 0, 0, [0, 0, 1, 1, 0, 0, 0, 0]>, <102, 1, 18, 17, 6, 0, 0, [0, 0, 1, 1, 0, 0, 0, 0]>, <103, 2, 19, 17, 6, 0, 0, [0, 0, 1, 1, 0, 0, 0, 0]>, <104, 3, 20, 17, 6, 0, 0, [0, 0, 1, 1, 0, 0, 0, 0]>, <105, 4, 21, 17, 6, 0, 0, [0, 0, 1, 1, 0, 0, 0, 0]>, <106, 5, 22, 17, 6, 0, 0, [0, 0, 1, 1, 0, 0, 0, 0]>, <107, 6, 23, 17, 6, 0, 0, [0, 0, 1, 1, 0, 0, 0, 0]>, <108, 7, 24, 17, 6, 0, 0, [0, 0, 1, 1, 0, 0, 0, 0]>, <109, 8, 25, 17, 6, 0, 0, [0, 0, 1, 1, 0, 0, 0, 0]>, <110, 9, 26, 17, 6, 0, 0, [0, 0, 1, 1, 0, 0, 0, 0]>, <111, 10, 27, 17, 6, 0, 0, [0, 0, 1, 1, 0, 0, 0, 0]>, <112, 11, 28, 17, 6, 0, 0, [0, 0, 1, 1, 0, 0, 0, 0]>, <113, 12, 29, 17, 6, 0, 0, [0, 0, 1, 1, 0, 0, 0, 0]>, <114, 0, 16, 16, 7, 1, 0, [0, 0, 1, 1, 0, 0, 0, 0]>, <115, 1, 17, 16, 7, 1, 0, [0, 0, 1, 1, 0, 0, 0, 0]>, <116, 2, 18, 16, 7, 1, 0, [0, 0, 1, 1, 0, 0, 0, 0]>, <117, 3, 19, 16, 7, 1, 0, [0, 0, 1, 1, 0, 0, 0, 0]>, <118, 4, 20, 16, 7, 1, 0, [0, 0, 1, 1, 0, 0, 0, 0]>, <119, 5, 21, 16, 7, 1, 0, [0, 0, 1, 1, 0, 0, 0, 0]>, <120, 6, 22, 16, 7, 1, 0, [0, 0, 1, 1, 0, 0, 0, 0]>, <121, 7, 23, 16, 7, 1, 0, [0, 0, 1, 1, 0, 0, 0, 0]>, <122, 8, 24, 16, 7, 1, 0, [0, 0, 1, 1, 0, 0, 0, 0]>, <123, 9, 25, 16, 7, 1, 0, [0, 0, 1, 1, 0, 0, 0, 0]>, <124, 10, 26, 16, 7, 1, 0, [0, 0, 1, 1, 0, 0, 0, 0]>, <125, 11, 27, 16, 7, 1, 0, [0, 0, 1, 1, 0, 0, 0, 0]>, <126, 12, 28, 16, 7, 1, 0, [0, 0, 1, 1, 0, 0, 0, 0]>, <127, 13, 29, 16, 7, 1, 0, [0, 0, 1, 1, 0, 0, 0, 0]>, <128, 0, 16, 16, 8, 0, 0, [0, 0, 0, 0, 0, 0, 1, 1]>, <129, 1, 17, 16, 8, 0, 0, [0, 0, 0, 0, 0, 0, 1, 1]>, <130, 2, 18, 16, 8, 0, 0, [0, 0, 0, 0, 0, 0, 1, 1]>, <131, 3, 19, 16, 8, 0, 0, [0, 0, 0, 0, 0, 0, 1, 1]>, <132, 4, 20, 16, 8, 0, 0, [0, 0, 0, 0, 0, 0, 1, 1]>, <133, 5, 21, 16, 8, 0, 0, [0, 0, 0, 0, 0, 0, 1, 1]>, <134, 6, 22, 16, 8, 0, 0, [0, 0, 0, 0, 0, 0, 1, 1]>, <135, 7, 23, 16, 8, 0, 0, [0, 0, 0, 0, 0, 0, 1, 1]>, <136, 8, 24, 16, 8, 0, 0, [0, 0, 0, 0, 0, 0, 1, 1]>, <137, 9, 25, 16, 8, 0, 0, [0, 0, 0, 0, 0, 0, 1, 1]>, <138, 10, 26, 16, 8, 0, 0, [0, 0, 0, 0, 0, 0, 1, 1]>, <139, 11, 27, 16, 8, 0, 0, [0, 0, 0, 0, 0, 0, 1, 1]>, <140, 12, 28, 16, 8, 0, 0, [0, 0, 0, 0, 0, 0, 1, 1]>, <141, 13, 29, 16, 8, 0, 0, [0, 0, 0, 0, 0, 0, 1, 1]>, <142, 0, 14, 14, 9, 0, 1, [0, 0, 0, 0, 0, 0, 1, 1]>, <143, 1, 15, 14, 9, 0, 1, [0, 0, 0, 0, 0, 0, 1, 1]>, <144, 2, 16, 14, 9, 0, 1, [0, 0, 0, 0, 0, 0, 1, 1]>, <145, 3, 17, 14, 9, 0, 1, [0, 0, 0, 0, 0, 0, 1, 1]>, <146, 4, 18, 14, 9, 0, 1, [0, 0, 0, 0, 0, 0, 1, 1]>, <147, 5, 19, 14, 9, 0, 1, [0, 0, 0, 0, 0, 0, 1, 1]>, <148, 6, 20, 14, 9, 0, 1, [0, 0, 0, 0, 0, 0, 1, 1]>, <149, 7, 21, 14, 9, 0, 1, [0, 0, 0, 0, 0, 0, 1, 1]>, <150, 8, 22, 14, 9, 0, 1, [0, 0, 0, 0, 0, 0, 1, 1]>, <151, 9, 23, 14, 9, 0, 1, [0, 0, 0, 0, 0, 0, 1, 1]>, <152, 10, 24, 14, 9, 0, 1, [0, 0, 0, 0, 0, 0, 1, 1]>, <153, 11, 25, 14, 9, 0, 1, [0, 0, 0, 0, 0, 0, 1, 1]>, <154, 12, 26, 14, 9, 0, 1, [0, 0, 0, 0, 0, 0, 1, 1]>, <155, 13, 27, 14, 9, 0, 1, [0, 0, 0, 0, 0, 0, 1, 1]>, <156, 14, 28, 14, 9, 0, 1, [0, 0, 0, 0, 0, 0, 1, 1]>, <157, 15, 29, 14, 9, 0, 1, [0, 0, 0, 0, 0, 0, 1, 1]>, <158, 0, 18, 18, 10, 0, 0, [1, 1, 0, 0, 0, 0, 0, 0]>, <159, 1, 19, 18, 10, 0, 0, [1, 1, 0, 0, 0, 0, 0, 0]>, <160, 2, 20, 18, 10, 0, 0, [1, 1, 0, 0, 0, 0, 0, 0]>, <161, 3, 21, 18, 10, 0, 0, [1, 1, 0, 0, 0, 0, 0, 0]>, <162, 4, 22, 18, 10, 0, 0, [1, 1, 0, 0, 0, 0, 0, 0]>, <163, 5, 23, 18, 10, 0, 0, [1, 1, 0, 0, 0, 0, 0, 0]>, <164, 6, 24, 18, 10, 0, 0, [1, 1, 0, 0, 0, 0, 0, 0]>, <165, 7, 25, 18, 10, 0, 0, [1, 1, 0, 0, 0, 0, 0, 0]>, <166, 8, 26, 18, 10, 0, 0, [1, 1, 0, 0, 0, 0, 0, 0]>, <167, 9, 27, 18, 10, 0, 0, [1, 1, 0, 0, 0, 0, 0, 0]>, <168, 10, 28, 18, 10, 0, 0, [1, 1, 0, 0, 0, 0, 0, 0]>, <169, 11, 29, 18, 10, 0, 0, [1, 1, 0, 0, 0, 0, 0, 0]>, <170, 0, 17, 17, 11, 0, 1, [0, 0, 0, 0, 0, 0, 1, 1]>, <171, 1, 18, 17, 11, 0, 1, [0, 0, 0, 0, 0, 0, 1, 1]>, <172, 2, 19, 17, 11, 0, 1, [0, 0, 0, 0, 0, 0, 1, 1]>, <173, 3, 20, 17, 11, 0, 1, [0, 0, 0, 0, 0, 0, 1, 1]>, <174, 4, 21, 17, 11, 0, 1, [0, 0, 0, 0, 0, 0, 1, 1]>, <175, 5, 22, 17, 11, 0, 1, [0, 0, 0, 0, 0, 0, 1, 1]>, <176, 6, 23, 17, 11, 0, 1, [0, 0, 0, 0, 0, 0, 1, 1]>, <177, 7, 24, 17, 11, 0, 1, [0, 0, 0, 0, 0, 0, 1, 1]>, <178, 8, 25, 17, 11, 0, 1, [0, 0, 0, 0, 0, 0, 1, 1]>, <179, 9, 26, 17, 11, 0, 1, [0, 0, 0, 0, 0, 0, 1, 1]>, <180, 10, 27, 17, 11, 0, 1, [0, 0, 0, 0, 0, 0, 1, 1]>, <181, 11, 28, 17, 11, 0, 1, [0, 0, 0, 0, 0, 0, 1, 1]>, <182, 12, 29, 17, 11, 0, 1, [0, 0, 0, 0, 0, 0, 1, 1]>, <183, 0, 17, 17, 12, 0, 1, [1, 0, 0, 0, 0, 0, 0, 1]>, <184, 1, 18, 17, 12, 0, 1, [1, 0, 0, 0, 0, 0, 0, 1]>, <185, 2, 19, 17, 12, 0, 1, [1, 0, 0, 0, 0, 0, 0, 1]>, <186, 3, 20, 17, 12, 0, 1, [1, 0, 0, 0, 0, 0, 0, 1]>, <187, 4, 21, 17, 12, 0, 1, [1, 0, 0, 0, 0, 0, 0, 1]>, <188, 5, 22, 17, 12, 0, 1, [1, 0, 0, 0, 0, 0, 0, 1]>, <189, 6, 23, 17, 12, 0, 1, [1, 0, 0, 0, 0, 0, 0, 1]>, <190, 7, 24, 17, 12, 0, 1, [1, 0, 0, 0, 0, 0, 0, 1]>, <191, 8, 25, 17, 12, 0, 1, [1, 0, 0, 0, 0, 0, 0, 1]>, <192, 9, 26, 17, 12, 0, 1, [1, 0, 0, 0, 0, 0, 0, 1]>, <193, 10, 27, 17, 12, 0, 1, [1, 0, 0, 0, 0, 0, 0, 1]>, <194, 11, 28, 17, 12, 0, 1, [1, 0, 0, 0, 0, 0, 0, 1]>, <195, 12, 29, 17, 12, 0, 1, [1, 0, 0, 0, 0, 0, 0, 1]>, <196, 0, 13, 13, 13, 0, 1, [0, 0, 0, 0, 0, 0, 1, 1]>, <197, 1, 14, 13, 13, 0, 1, [0, 0, 0, 0, 0, 0, 1, 1]>, <198, 2, 15, 13, 13, 0, 1, [0, 0, 0, 0, 0, 0, 1, 1]>, <199, 3, 16, 13, 13, 0, 1, [0, 0, 0, 0, 0, 0, 1, 1]>, <200, 4, 17, 13, 13, 0, 1, [0, 0, 0, 0, 0, 0, 1, 1]>, <201, 5, 18, 13, 13, 0, 1, [0, 0, 0, 0, 0, 0, 1, 1]>, <202, 7, 20, 13, 13, 0, 1, [0, 0, 0, 0, 0, 0, 1, 1]>, <203, 8, 21, 13, 13, 0, 1, [0, 0, 0, 0, 0, 0, 1, 1]>, <204, 9, 22, 13, 13, 0, 1, [0, 0, 0, 0, 0, 0, 1, 1]>, <205, 10, 23, 13, 13, 0, 1, [0, 0, 0, 0, 0, 0, 1, 1]>, <206, 11, 24, 13, 13, 0, 1, [0, 0, 0, 0, 0, 0, 1, 1]>, <207, 12, 25, 13, 13, 0, 1, [0, 0, 0, 0, 0, 0, 1, 1]>, <208, 13, 26, 13, 13, 0, 1, [0, 0, 0, 0, 0, 0, 1, 1]>, <209, 14, 27, 13, 13, 0, 1, [0, 0, 0, 0, 0, 0, 1, 1]>, <210, 15, 28, 13, 13, 0, 1, [0, 0, 0, 0, 0, 0, 1, 1]>, <211, 16, 29, 13, 13, 0, 1, [0, 0, 0, 0, 0, 0, 1, 1]>, <212, 0, 17, 17, 14, 0, 1, [1, 0, 0, 0, 0, 0, 0, 1]>, <213, 1, 18, 17, 14, 0, 1, [1, 0, 0, 0, 0, 0, 0, 1]>, <214, 2, 19, 17, 14, 0, 1, [1, 0, 0, 0, 0, 0, 0, 1]>, <215, 3, 20, 17, 14, 0, 1, [1, 0, 0, 0, 0, 0, 0, 1]>, <216, 4, 21, 17, 14, 0, 1, [1, 0, 0, 0, 0, 0, 0, 1]>, <217, 5, 22, 17, 14, 0, 1, [1, 0, 0, 0, 0, 0, 0, 1]>, <218, 6, 23, 17, 14, 0, 1, [1, 0, 0, 0, 0, 0, 0, 1]>, <219, 7, 24, 17, 14, 0, 1, [1, 0, 0, 0, 0, 0, 0, 1]>, <220, 8, 25, 17, 14, 0, 1, [1, 0, 0, 0, 0, 0, 0, 1]>, <221, 9, 26, 17, 14, 0, 1, [1, 0, 0, 0, 0, 0, 0, 1]>, <222, 10, 27, 17, 14, 0, 1, [1, 0, 0, 0, 0, 0, 0, 1]>, <223, 11, 28, 17, 14, 0, 1, [1, 0, 0, 0, 0, 0, 0, 1]>, <224, 12, 29, 17, 14, 0, 1, [1, 0, 0, 0, 0, 0, 0, 1]>, <225, 0, 17, 17, 15, 0, 0, [0, 0, 1, 1, 0, 0, 0, 0]>, <226, 1, 18, 17, 15, 0, 0, [0, 0, 1, 1, 0, 0, 0, 0]>, <227, 2, 19, 17, 15, 0, 0, [0, 0, 1, 1, 0, 0, 0, 0]>, <228, 3, 20, 17, 15, 0, 0, [0, 0, 1, 1, 0, 0, 0, 0]>, <229, 4, 21, 17, 15, 0, 0, [0, 0, 1, 1, 0, 0, 0, 0]>, <230, 5, 22, 17, 15, 0, 0, [0, 0, 1, 1, 0, 0, 0, 0]>, <231, 6, 23, 17, 15, 0, 0, [0, 0, 1, 1, 0, 0, 0, 0]>, <232, 7, 24, 17, 15, 0, 0, [0, 0, 1, 1, 0, 0, 0, 0]>, <233, 8, 25, 17, 15, 0, 0, [0, 0, 1, 1, 0, 0, 0, 0]>, <234, 9, 26, 17, 15, 0, 0, [0, 0, 1, 1, 0, 0, 0, 0]>, <235, 10, 27, 17, 15, 0, 0, [0, 0, 1, 1, 0, 0, 0, 0]>, <236, 11, 28, 17, 15, 0, 0, [0, 0, 1, 1, 0, 0, 0, 0]>, <237, 12, 29, 17, 15, 0, 0, [0, 0, 1, 1, 0, 0, 0, 0]>, <238, 0, 18, 18, 16, 1, 0, [0, 0, 0, 0, 1, 1, 0, 0]>, <239, 1, 19, 18, 16, 1, 0, [0, 0, 0, 0, 1, 1, 0, 0]>, <240, 2, 20, 18, 16, 1, 0, [0, 0, 0, 0, 1, 1, 0, 0]>, <241, 3, 21, 18, 16, 1, 0, [0, 0, 0, 0, 1, 1, 0, 0]>, <242, 4, 22, 18, 16, 1, 0, [0, 0, 0, 0, 1, 1, 0, 0]>, <243, 5, 23, 18, 16, 1, 0, [0, 0, 0, 0, 1, 1, 0, 0]>, <244, 6, 24, 18, 16, 1, 0, [0, 0, 0, 0, 1, 1, 0, 0]>, <245, 7, 25, 18, 16, 1, 0, [0, 0, 0, 0, 1, 1, 0, 0]>, <246, 8, 26, 18, 16, 1, 0, [0, 0, 0, 0, 1, 1, 0, 0]>, <247, 9, 27, 18, 16, 1, 0, [0, 0, 0, 0, 1, 1, 0, 0]>, <248, 10, 28, 18, 16, 1, 0, [0, 0, 0, 0, 1, 1, 0, 0]>, <249, 11, 29, 18, 16, 1, 0, [0, 0, 0, 0, 1, 1, 0, 0]>, <250, 0, 14, 14, 17, 0, 1, [0, 0, 0, 0, 0, 1, 1, 0]>, <251, 1, 15, 14, 17, 0, 1, [0, 0, 0, 0, 0, 1, 1, 0]>, <252, 2, 16, 14, 17, 0, 1, [0, 0, 0, 0, 0, 1, 1, 0]>, <253, 3, 17, 14, 17, 0, 1, [0, 0, 0, 0, 0, 1, 1, 0]>, <254, 4, 18, 14, 17, 0, 1, [0, 0, 0, 0, 0, 1, 1, 0]>, <255, 5, 19, 14, 17, 0, 1, [0, 0, 0, 0, 0, 1, 1, 0]>, <256, 6, 20, 14, 17, 0, 1, [0, 0, 0, 0, 0, 1, 1, 0]>, <257, 7, 21, 14, 17, 0, 1, [0, 0, 0, 0, 0, 1, 1, 0]>, <258, 8, 22, 14, 17, 0, 1, [0, 0, 0, 0, 0, 1, 1, 0]>, <259, 9, 23, 14, 17, 0, 1, [0, 0, 0, 0, 0, 1, 1, 0]>, <260, 10, 24, 14, 17, 0, 1, [0, 0, 0, 0, 0, 1, 1, 0]>, <261, 11, 25, 14, 17, 0, 1, [0, 0, 0, 0, 0, 1, 1, 0]>, <262, 12, 26, 14, 17, 0, 1, [0, 0, 0, 0, 0, 1, 1, 0]>, <263, 13, 27, 14, 17, 0, 1, [0, 0, 0, 0, 0, 1, 1, 0]>, <264, 14, 28, 14, 17, 0, 1, [0, 0, 0, 0, 0, 1, 1, 0]>, <265, 15, 29, 14, 17, 0, 1, [0, 0, 0, 0, 0, 1, 1, 0]>, <266, 0, 18, 18, 18, 0, 0, [0, 0, 0, 1, 1, 0, 0, 0]>, <267, 1, 19, 18, 18, 0, 0, [0, 0, 0, 1, 1, 0, 0, 0]>, <268, 2, 20, 18, 18, 0, 0, [0, 0, 0, 1, 1, 0, 0, 0]>, <269, 3, 21, 18, 18, 0, 0, [0, 0, 0, 1, 1, 0, 0, 0]>, <270, 4, 22, 18, 18, 0, 0, [0, 0, 0, 1, 1, 0, 0, 0]>, <271, 5, 23, 18, 18, 0, 0, [0, 0, 0, 1, 1, 0, 0, 0]>, <272, 6, 24, 18, 18, 0, 0, [0, 0, 0, 1, 1, 0, 0, 0]>, <273, 7, 25, 18, 18, 0, 0, [0, 0, 0, 1, 1, 0, 0, 0]>, <274, 8, 26, 18, 18, 0, 0, [0, 0, 0, 1, 1, 0, 0, 0]>, <275, 9, 27, 18, 18, 0, 0, [0, 0, 0, 1, 1, 0, 0, 0]>, <276, 10, 28, 18, 18, 0, 0, [0, 0, 0, 1, 1, 0, 0, 0]>, <277, 11, 29, 18, 18, 0, 0, [0, 0, 0, 1, 1, 0, 0, 0]>, <278, 0, 17, 17, 19, 0, 0, [0, 0, 0, 0, 0, 0, 1, 1]>, <279, 1, 18, 17, 19, 0, 0, [0, 0, 0, 0, 0, 0, 1, 1]>, <280, 2, 19, 17, 19, 0, 0, [0, 0, 0, 0, 0, 0, 1, 1]>, <281, 3, 20, 17, 19, 0, 0, [0, 0, 0, 0, 0, 0, 1, 1]>, <282, 4, 21, 17, 19, 0, 0, [0, 0, 0, 0, 0, 0, 1, 1]>, <283, 5, 22, 17, 19, 0, 0, [0, 0, 0, 0, 0, 0, 1, 1]>, <284, 6, 23, 17, 19, 0, 0, [0, 0, 0, 0, 0, 0, 1, 1]>, <285, 7, 24, 17, 19, 0, 0, [0, 0, 0, 0, 0, 0, 1, 1]>, <286, 8, 25, 17, 19, 0, 0, [0, 0, 0, 0, 0, 0, 1, 1]>, <287, 9, 26, 17, 19, 0, 0, [0, 0, 0, 0, 0, 0, 1, 1]>, <288, 10, 27, 17, 19, 0, 0, [0, 0, 0, 0, 0, 0, 1, 1]>, <289, 11, 28, 17, 19, 0, 0, [0, 0, 0, 0, 0, 0, 1, 1]>, <290, 12, 29, 17, 19, 0, 0, [0, 0, 0, 0, 0, 0, 1, 1]>, <291, 0, 16, 16, 20, 0, 0, [0, 0, 0, 0, 1, 1, 0, 0]>, <292, 1, 17, 16, 20, 0, 0, [0, 0, 0, 0, 1, 1, 0, 0]>, <293, 2, 18, 16, 20, 0, 0, [0, 0, 0, 0, 1, 1, 0, 0]>, <294, 3, 19, 16, 20, 0, 0, [0, 0, 0, 0, 1, 1, 0, 0]>, <295, 4, 20, 16, 20, 0, 0, [0, 0, 0, 0, 1, 1, 0, 0]>, <296, 5, 21, 16, 20, 0, 0, [0, 0, 0, 0, 1, 1, 0, 0]>, <297, 6, 22, 16, 20, 0, 0, [0, 0, 0, 0, 1, 1, 0, 0]>, <298, 7, 23, 16, 20, 0, 0, [0, 0, 0, 0, 1, 1, 0, 0]>, <299, 8, 24, 16, 20, 0, 0, [0, 0, 0, 0, 1, 1, 0, 0]>, <300, 9, 25, 16, 20, 0, 0, [0, 0, 0, 0, 1, 1, 0, 0]>, <301, 10, 26, 16, 20, 0, 0, [0, 0, 0, 0, 1, 1, 0, 0]>, <302, 11, 27, 16, 20, 0, 0, [0, 0, 0, 0, 1, 1, 0, 0]>, <303, 12, 28, 16, 20, 0, 0, [0, 0, 0, 0, 1, 1, 0, 0]>, <304, 13, 29, 16, 20, 0, 0, [0, 0, 0, 0, 1, 1, 0, 0]>, <305, 0, 15, 15, 21, 0, 1, [0, 1, 1, 0, 0, 0, 0, 0]>, <306, 1, 16, 15, 21, 0, 1, [0, 1, 1, 0, 0, 0, 0, 0]>, <307, 2, 17, 15, 21, 0, 1, [0, 1, 1, 0, 0, 0, 0, 0]>, <308, 3, 18, 15, 21, 0, 1, [0, 1, 1, 0, 0, 0, 0, 0]>, <309, 4, 19, 15, 21, 0, 1, [0, 1, 1, 0, 0, 0, 0, 0]>, <310, 5, 20, 15, 21, 0, 1, [0, 1, 1, 0, 0, 0, 0, 0]>, <311, 6, 21, 15, 21, 0, 1, [0, 1, 1, 0, 0, 0, 0, 0]>, <312, 7, 22, 15, 21, 0, 1, [0, 1, 1, 0, 0, 0, 0, 0]>, <313, 8, 23, 15, 21, 0, 1, [0, 1, 1, 0, 0, 0, 0, 0]>, <314, 9, 24, 15, 21, 0, 1, [0, 1, 1, 0, 0, 0, 0, 0]>, <315, 10, 25, 15, 21, 0, 1, [0, 1, 1, 0, 0, 0, 0, 0]>, <316, 11, 26, 15, 21, 0, 1, [0, 1, 1, 0, 0, 0, 0, 0]>, <317, 12, 27, 15, 21, 0, 1, [0, 1, 1, 0, 0, 0, 0, 0]>, <318, 13, 28, 15, 21, 0, 1, [0, 1, 1, 0, 0, 0, 0, 0]>, <319, 14, 29, 15, 21, 0, 1, [0, 1, 1, 0, 0, 0, 0, 0]>};
